c description: Graph 4-Colorability of graph: 
c generator: CNFgen (0.9.0)
c copyright: (C) 2012-2020 Massimo Lauria <massimo.lauria@uniroma1.it>
c url: https://massimolauria.net/cnfgen
c
p cnf 80 460
1 2 3 4 0
-1 -2 0
-1 -3 0
-1 -4 0
-2 -3 0
-2 -4 0
-3 -4 0
5 6 7 8 0
-5 -6 0
-5 -7 0
-5 -8 0
-6 -7 0
-6 -8 0
-7 -8 0
9 10 11 12 0
-9 -10 0
-9 -11 0
-9 -12 0
-10 -11 0
-10 -12 0
-11 -12 0
13 14 15 16 0
-13 -14 0
-13 -15 0
-13 -16 0
-14 -15 0
-14 -16 0
-15 -16 0
17 18 19 20 0
-17 -18 0
-17 -19 0
-17 -20 0
-18 -19 0
-18 -20 0
-19 -20 0
21 22 23 24 0
-21 -22 0
-21 -23 0
-21 -24 0
-22 -23 0
-22 -24 0
-23 -24 0
25 26 27 28 0
-25 -26 0
-25 -27 0
-25 -28 0
-26 -27 0
-26 -28 0
-27 -28 0
29 30 31 32 0
-29 -30 0
-29 -31 0
-29 -32 0
-30 -31 0
-30 -32 0
-31 -32 0
33 34 35 36 0
-33 -34 0
-33 -35 0
-33 -36 0
-34 -35 0
-34 -36 0
-35 -36 0
37 38 39 40 0
-37 -38 0
-37 -39 0
-37 -40 0
-38 -39 0
-38 -40 0
-39 -40 0
41 42 43 44 0
-41 -42 0
-41 -43 0
-41 -44 0
-42 -43 0
-42 -44 0
-43 -44 0
45 46 47 48 0
-45 -46 0
-45 -47 0
-45 -48 0
-46 -47 0
-46 -48 0
-47 -48 0
49 50 51 52 0
-49 -50 0
-49 -51 0
-49 -52 0
-50 -51 0
-50 -52 0
-51 -52 0
53 54 55 56 0
-53 -54 0
-53 -55 0
-53 -56 0
-54 -55 0
-54 -56 0
-55 -56 0
57 58 59 60 0
-57 -58 0
-57 -59 0
-57 -60 0
-58 -59 0
-58 -60 0
-59 -60 0
61 62 63 64 0
-61 -62 0
-61 -63 0
-61 -64 0
-62 -63 0
-62 -64 0
-63 -64 0
65 66 67 68 0
-65 -66 0
-65 -67 0
-65 -68 0
-66 -67 0
-66 -68 0
-67 -68 0
69 70 71 72 0
-69 -70 0
-69 -71 0
-69 -72 0
-70 -71 0
-70 -72 0
-71 -72 0
73 74 75 76 0
-73 -74 0
-73 -75 0
-73 -76 0
-74 -75 0
-74 -76 0
-75 -76 0
77 78 79 80 0
-77 -78 0
-77 -79 0
-77 -80 0
-78 -79 0
-78 -80 0
-79 -80 0
-1 -5 0
-2 -6 0
-3 -7 0
-4 -8 0
-1 -9 0
-2 -10 0
-3 -11 0
-4 -12 0
-1 -25 0
-2 -26 0
-3 -27 0
-4 -28 0
-1 -45 0
-2 -46 0
-3 -47 0
-4 -48 0
-1 -61 0
-2 -62 0
-3 -63 0
-4 -64 0
-1 -65 0
-2 -66 0
-3 -67 0
-4 -68 0
-1 -69 0
-2 -70 0
-3 -71 0
-4 -72 0
-5 -17 0
-6 -18 0
-7 -19 0
-8 -20 0
-5 -21 0
-6 -22 0
-7 -23 0
-8 -24 0
-5 -33 0
-6 -34 0
-7 -35 0
-8 -36 0
-5 -37 0
-6 -38 0
-7 -39 0
-8 -40 0
-5 -45 0
-6 -46 0
-7 -47 0
-8 -48 0
-5 -65 0
-6 -66 0
-7 -67 0
-8 -68 0
-9 -17 0
-10 -18 0
-11 -19 0
-12 -20 0
-9 -29 0
-10 -30 0
-11 -31 0
-12 -32 0
-9 -41 0
-10 -42 0
-11 -43 0
-12 -44 0
-9 -45 0
-10 -46 0
-11 -47 0
-12 -48 0
-9 -49 0
-10 -50 0
-11 -51 0
-12 -52 0
-9 -53 0
-10 -54 0
-11 -55 0
-12 -56 0
-9 -65 0
-10 -66 0
-11 -67 0
-12 -68 0
-9 -69 0
-10 -70 0
-11 -71 0
-12 -72 0
-13 -21 0
-14 -22 0
-15 -23 0
-16 -24 0
-13 -45 0
-14 -46 0
-15 -47 0
-16 -48 0
-13 -53 0
-14 -54 0
-15 -55 0
-16 -56 0
-13 -57 0
-14 -58 0
-15 -59 0
-16 -60 0
-17 -21 0
-18 -22 0
-19 -23 0
-20 -24 0
-17 -25 0
-18 -26 0
-19 -27 0
-20 -28 0
-17 -29 0
-18 -30 0
-19 -31 0
-20 -32 0
-17 -33 0
-18 -34 0
-19 -35 0
-20 -36 0
-17 -37 0
-18 -38 0
-19 -39 0
-20 -40 0
-17 -41 0
-18 -42 0
-19 -43 0
-20 -44 0
-17 -53 0
-18 -54 0
-19 -55 0
-20 -56 0
-17 -61 0
-18 -62 0
-19 -63 0
-20 -64 0
-17 -65 0
-18 -66 0
-19 -67 0
-20 -68 0
-17 -73 0
-18 -74 0
-19 -75 0
-20 -76 0
-17 -77 0
-18 -78 0
-19 -79 0
-20 -80 0
-21 -29 0
-22 -30 0
-23 -31 0
-24 -32 0
-21 -37 0
-22 -38 0
-23 -39 0
-24 -40 0
-21 -45 0
-22 -46 0
-23 -47 0
-24 -48 0
-21 -49 0
-22 -50 0
-23 -51 0
-24 -52 0
-21 -61 0
-22 -62 0
-23 -63 0
-24 -64 0
-21 -69 0
-22 -70 0
-23 -71 0
-24 -72 0
-21 -77 0
-22 -78 0
-23 -79 0
-24 -80 0
-25 -29 0
-26 -30 0
-27 -31 0
-28 -32 0
-25 -41 0
-26 -42 0
-27 -43 0
-28 -44 0
-25 -45 0
-26 -46 0
-27 -47 0
-28 -48 0
-25 -49 0
-26 -50 0
-27 -51 0
-28 -52 0
-25 -53 0
-26 -54 0
-27 -55 0
-28 -56 0
-25 -65 0
-26 -66 0
-27 -67 0
-28 -68 0
-25 -73 0
-26 -74 0
-27 -75 0
-28 -76 0
-29 -33 0
-30 -34 0
-31 -35 0
-32 -36 0
-29 -41 0
-30 -42 0
-31 -43 0
-32 -44 0
-29 -45 0
-30 -46 0
-31 -47 0
-32 -48 0
-29 -53 0
-30 -54 0
-31 -55 0
-32 -56 0
-29 -57 0
-30 -58 0
-31 -59 0
-32 -60 0
-29 -61 0
-30 -62 0
-31 -63 0
-32 -64 0
-33 -37 0
-34 -38 0
-35 -39 0
-36 -40 0
-33 -45 0
-34 -46 0
-35 -47 0
-36 -48 0
-33 -73 0
-34 -74 0
-35 -75 0
-36 -76 0
-37 -57 0
-38 -58 0
-39 -59 0
-40 -60 0
-41 -53 0
-42 -54 0
-43 -55 0
-44 -56 0
-41 -57 0
-42 -58 0
-43 -59 0
-44 -60 0
-41 -65 0
-42 -66 0
-43 -67 0
-44 -68 0
-45 -49 0
-46 -50 0
-47 -51 0
-48 -52 0
-45 -53 0
-46 -54 0
-47 -55 0
-48 -56 0
-45 -57 0
-46 -58 0
-47 -59 0
-48 -60 0
-45 -61 0
-46 -62 0
-47 -63 0
-48 -64 0
-45 -65 0
-46 -66 0
-47 -67 0
-48 -68 0
-45 -69 0
-46 -70 0
-47 -71 0
-48 -72 0
-49 -73 0
-50 -74 0
-51 -75 0
-52 -76 0
-53 -57 0
-54 -58 0
-55 -59 0
-56 -60 0
-53 -61 0
-54 -62 0
-55 -63 0
-56 -64 0
-53 -65 0
-54 -66 0
-55 -67 0
-56 -68 0
-53 -77 0
-54 -78 0
-55 -79 0
-56 -80 0
-57 -69 0
-58 -70 0
-59 -71 0
-60 -72 0
-61 -65 0
-62 -66 0
-63 -67 0
-64 -68 0
-61 -77 0
-62 -78 0
-63 -79 0
-64 -80 0
-69 -73 0
-70 -74 0
-71 -75 0
-72 -76 0
-69 -77 0
-70 -78 0
-71 -79 0
-72 -80 0
-73 -77 0
-74 -78 0
-75 -79 0
-76 -80 0